Route #1: 92 54 9 84 43 97 11 41 114 48 72
Route #2: 68 6 123 95 49 38 80 21 107 71
Route #3: 56 35 89 116 60 4 102 29 7 87
Route #4: 51 120 14 111 106 104 1 2 90 12 18
Route #5: 5 121 124 40 61 45 17 117 77 10
Route #6: 99 73 55 39 74 63 109 53 108 36
Route #7: 122 105 113 83 100 103 82 64 96 88
Route #8: 46 91 24 125 65 86 31 16 78 26
Route #9: 33 85 22 57 101 50 59 119 27
Route #10: 94 13 112 115 42 23 110 69 67
Route #11: 58 79 76 52 98 20 32 75 8
Route #12: 19 3 70 28 25
Route #13: 37 47 93 30 34 62 81 66 44 118 15
Cost 14786
